WARNING: for repeatability, setting FPU to use double precision
============================[ Problem Statistics ]=============================
|                                                                             |
|  Number of variables:        219937                                         |
|  Number of clauses:          517791                                         |
|  Parse time:                   0.30 s                                       |
|                                                                             |
============================[ Search Statistics ]==============================
| Conflicts |          ORIGINAL         |          LEARNT          | Progress |
|           |    Vars  Clauses Literals |    Limit  Clauses Lit/Cl |          |
===============================================================================
|       100 |  122738   498096  1117930 |   182635      100     21 | 44.194 % |
|       250 |  122738   498096  1117930 |   200898      250     17 | 44.194 % |
|       475 |  122738   498096  1117930 |   220988      475     18 | 44.194 % |
|       812 |  122738   498096  1117930 |   243087      812     30 | 44.194 % |
===============================================================================
restarts              : 8
conflicts             : 1257           (1227 /sec)
decisions             : 13053          (0.00 % random) (12746 /sec)
propagations          : 2800151        (2734352 /sec)
conflict literals     : 50231          (5.79 % deleted)
Memory used           : 57.00 MB
CPU time              : 1.02406 s

SATISFIABLE
